(set-info :source |printed by MathSAT|)

0 (5) @37:
(assert true)

5 (9,8,7,6) @52:
(assert true)

9 () @407:
(assert true)

8 () @408:
(assert true)

7 () @52:
(assert true)

6 () @409:
(assert true)

